outputs/case_470.model.txt
declaration_false_suspected = False
forex_amount_ntd_equivalent = 1000000
declaration_submitted = True
declaration_truthful = True
query_response_truthful = True
forex_deposited = True
query_response_ok = True
declaration_made = True
violation_query_response = False
penalty = False
violation_declaration = False
declaration_required = True
query_response_submitted_in_time = True
forex_sold_settled = True
violation_forex_settlement = False